33D32945 STP File, STP Format Version 1.0

SECTION Comment
Name 	 "n200_l1.5_rand-graph"
Creator 	"Indaco Biazzo"
Remark
END

SECTION Graph
Nodes 200
Edges 1575
E 1 7 2.000000
E 1 144 2.000000
E 1 146 2.000000
E 1 149 1.000000
E 1 150 4.000000
E 1 154 4.000000
E 1 163 2.000000
E 1 170 1.000000
E 1 46 2.000000
E 1 179 1.000000
E 1 53 1.000000
E 1 184 4.000000
E 1 189 4.000000
E 1 63 1.000000
E 1 193 4.000000
E 1 66 2.000000
E 1 196 2.000000
E 1 69 1.000000
E 1 199 4.000000
E 1 73 2.000000
E 1 191 4.000000
E 1 94 4.000000
E 1 109 1.000000
E 1 116 4.000000
E 1 117 4.000000
E 1 118 4.000000
E 2 193 2.000000
E 2 194 1.000000
E 2 133 1.000000
E 2 166 1.000000
E 2 199 4.000000
E 2 75 1.000000
E 2 78 2.000000
E 2 47 4.000000
E 2 148 1.000000
E 2 22 2.000000
E 2 183 2.000000
E 2 171 1.000000
E 2 139 2.000000
E 3 145 4.000000
E 3 131 1.000000
E 3 37 1.000000
E 3 133 2.000000
E 3 113 1.000000
E 3 54 2.000000
E 3 87 4.000000
E 3 185 2.000000
E 3 5 2.000000
E 3 28 4.000000
E 3 30 1.000000
E 4 194 2.000000
E 4 140 2.000000
E 4 101 2.000000
E 4 10 1.000000
E 4 108 4.000000
E 4 77 1.000000
E 4 176 1.000000
E 4 16 4.000000
E 4 18 4.000000
E 4 106 2.000000
E 4 150 2.000000
E 4 87 1.000000
E 4 56 1.000000
E 4 153 2.000000
E 4 133 1.000000
E 4 59 1.000000
E 4 92 2.000000
E 4 61 1.000000
E 4 160 2.000000
E 5 129 4.000000
E 5 193 4.000000
E 5 68 2.000000
E 5 166 2.000000
E 5 147 2.000000
E 5 125 1.000000
E 5 77 4.000000
E 5 142 2.000000
E 5 48 1.000000
E 5 49 1.000000
E 5 18 2.000000
E 5 115 2.000000
E 5 189 2.000000
E 5 53 4.000000
E 5 86 4.000000
E 5 184 1.000000
E 5 58 2.000000
E 5 61 4.000000
E 5 158 2.000000
E 5 186 2.000000
E 6 98 1.000000
E 6 140 2.000000
E 6 133 2.000000
E 6 38 2.000000
E 6 72 2.000000
E 6 130 2.000000
E 6 40 2.000000
E 6 141 2.000000
E 6 111 1.000000
E 6 196 2.000000
E 6 117 4.000000
E 6 182 2.000000
E 6 24 1.000000
E 6 165 1.000000
E 6 59 2.000000
E 6 160 1.000000
E 7 194 1.000000
E 7 140 1.000000
E 7 69 2.000000
E 7 71 4.000000
E 7 136 2.000000
E 7 106 2.000000
E 7 44 2.000000
E 7 79 2.000000
E 7 16 2.000000
E 7 145 4.000000
E 7 22 4.000000
E 7 153 4.000000
E 7 165 2.000000
E 7 60 2.000000
E 8 136 4.000000
E 8 148 1.000000
E 8 149 1.000000
E 8 151 2.000000
E 8 24 4.000000
E 8 154 2.000000
E 8 39 2.000000
E 8 169 4.000000
E 8 173 2.000000
E 8 174 4.000000
E 8 183 4.000000
E 8 186 2.000000
E 8 70 4.000000
E 8 75 4.000000
E 8 82 4.000000
E 8 87 1.000000
E 8 55 4.000000
E 8 94 4.000000
E 8 99 4.000000
E 8 102 4.000000
E 8 113 1.000000
E 8 122 4.000000
E 8 123 1.000000
E 9 100 2.000000
E 9 137 4.000000
E 9 15 1.000000
E 9 178 2.000000
E 9 147 1.000000
E 9 153 1.000000
E 9 156 1.000000
E 9 30 1.000000
E 9 128 4.000000
E 10 163 4.000000
E 10 166 2.000000
E 10 43 4.000000
E 10 13 4.000000
E 10 54 2.000000
E 10 24 2.000000
E 10 30 4.000000
E 10 182 2.000000
E 11 37 1.000000
E 11 134 2.000000
E 11 167 2.000000
E 11 169 2.000000
E 11 48 1.000000
E 11 115 2.000000
E 11 70 4.000000
E 11 166 4.000000
E 12 145 2.000000
E 12 132 1.000000
E 12 38 2.000000
E 12 103 1.000000
E 12 41 1.000000
E 12 75 1.000000
E 12 177 2.000000
E 12 173 4.000000
E 12 15 2.000000
E 12 81 1.000000
E 12 83 4.000000
E 12 164 2.000000
E 12 117 2.000000
E 12 182 1.000000
E 12 88 2.000000
E 12 28 2.000000
E 12 191 4.000000
E 12 166 2.000000
E 13 66 2.000000
E 13 163 2.000000
E 13 101 2.000000
E 13 98 4.000000
E 13 130 4.000000
E 13 126 4.000000
E 13 49 2.000000
E 13 50 4.000000
E 13 19 4.000000
E 13 182 4.000000
E 13 151 4.000000
E 13 170 1.000000
E 13 89 4.000000
E 13 91 4.000000
E 13 123 1.000000
E 13 31 1.000000
E 14 66 1.000000
E 14 35 4.000000
E 14 100 2.000000
E 14 199 1.000000
E 14 170 1.000000
E 14 43 1.000000
E 14 140 1.000000
E 14 152 4.000000
E 14 175 4.000000
E 14 190 1.000000
E 14 51 4.000000
E 14 84 4.000000
E 14 55 1.000000
E 14 120 2.000000
E 14 93 2.000000
E 14 139 4.000000
E 14 159 4.000000
E 14 192 1.000000
E 15 129 1.000000
E 15 66 4.000000
E 15 100 2.000000
E 15 103 2.000000
E 15 40 4.000000
E 15 42 4.000000
E 15 43 4.000000
E 15 193 1.000000
E 15 175 1.000000
E 15 112 4.000000
E 15 82 1.000000
E 15 91 2.000000
E 15 119 4.000000
E 15 74 2.000000
E 15 185 2.000000
E 15 27 1.000000
E 15 169 1.000000
E 15 59 2.000000
E 15 160 4.000000
E 16 103 4.000000
E 16 40 1.000000
E 16 140 4.000000
E 16 78 2.000000
E 16 111 2.000000
E 16 175 2.000000
E 16 100 2.000000
E 16 52 2.000000
E 16 21 1.000000
E 16 22 4.000000
E 16 185 4.000000
E 16 59 2.000000
E 16 156 4.000000
E 16 196 4.000000
E 16 200 1.000000
E 16 54 4.000000
E 17 194 4.000000
E 17 131 2.000000
E 17 199 2.000000
E 17 167 2.000000
E 17 75 1.000000
E 17 115 2.000000
E 17 51 1.000000
E 17 22 4.000000
E 17 152 1.000000
E 17 122 2.000000
E 17 94 2.000000
E 17 64 4.000000
E 18 194 4.000000
E 18 196 2.000000
E 18 104 2.000000
E 18 164 1.000000
E 18 95 1.000000
E 18 23 1.000000
E 18 88 4.000000
E 18 25 1.000000
E 18 69 1.000000
E 18 31 2.000000
E 18 32 2.000000
E 19 35 1.000000
E 19 44 4.000000
E 19 104 1.000000
E 19 108 2.000000
E 19 177 2.000000
E 19 132 2.000000
E 19 156 1.000000
E 19 160 1.000000
E 20 102 2.000000
E 20 167 4.000000
E 20 72 2.000000
E 20 73 4.000000
E 20 79 4.000000
E 20 80 1.000000
E 20 181 4.000000
E 20 189 2.000000
E 20 94 2.000000
E 20 95 2.000000
E 21 97 4.000000
E 21 98 2.000000
E 21 102 1.000000
E 21 199 4.000000
E 21 40 1.000000
E 21 113 1.000000
E 21 45 4.000000
E 21 49 1.000000
E 21 178 1.000000
E 21 115 2.000000
E 21 23 4.000000
E 21 176 2.000000
E 21 93 4.000000
E 21 192 2.000000
E 22 195 2.000000
E 22 197 2.000000
E 22 39 1.000000
E 22 141 1.000000
E 22 192 4.000000
E 22 114 4.000000
E 22 147 1.000000
E 22 150 2.000000
E 22 87 2.000000
E 22 124 2.000000
E 22 160 2.000000
E 22 134 1.000000
E 23 138 2.000000
E 23 143 4.000000
E 23 147 1.000000
E 23 31 4.000000
E 23 160 2.000000
E 23 163 1.000000
E 23 165 4.000000
E 23 41 1.000000
E 23 45 4.000000
E 23 49 2.000000
E 23 179 4.000000
E 23 173 4.000000
E 23 53 2.000000
E 23 55 2.000000
E 23 185 4.000000
E 23 61 1.000000
E 23 190 1.000000
E 23 70 1.000000
E 23 103 4.000000
E 23 104 1.000000
E 23 119 1.000000
E 24 130 2.000000
E 24 37 2.000000
E 24 71 2.000000
E 24 75 2.000000
E 24 173 1.000000
E 24 61 1.000000
E 24 125 1.000000
E 24 118 1.000000
E 24 55 4.000000
E 24 56 4.000000
E 24 89 1.000000
E 24 69 2.000000
E 24 91 1.000000
E 24 156 2.000000
E 24 29 4.000000
E 24 138 2.000000
E 25 68 4.000000
E 25 197 2.000000
E 25 102 1.000000
E 25 167 2.000000
E 25 44 2.000000
E 25 46 2.000000
E 25 79 1.000000
E 25 174 2.000000
E 25 49 2.000000
E 25 51 4.000000
E 25 108 2.000000
E 25 57 1.000000
E 25 196 1.000000
E 25 64 1.000000
E 26 98 2.000000
E 26 100 1.000000
E 26 169 1.000000
E 26 74 2.000000
E 26 184 1.000000
E 26 141 1.000000
E 26 80 1.000000
E 26 121 4.000000
E 26 196 4.000000
E 26 87 4.000000
E 26 152 2.000000
E 26 89 2.000000
E 26 27 4.000000
E 26 156 2.000000
E 26 29 2.000000
E 26 59 4.000000
E 26 127 2.000000
E 26 64 2.000000
E 27 193 2.000000
E 27 69 2.000000
E 27 38 1.000000
E 27 138 1.000000
E 27 77 4.000000
E 27 142 2.000000
E 27 112 4.000000
E 27 145 2.000000
E 27 87 4.000000
E 27 91 1.000000
E 27 144 1.000000
E 28 133 4.000000
E 28 153 1.000000
E 28 155 2.000000
E 28 157 1.000000
E 28 159 2.000000
E 28 36 2.000000
E 28 169 4.000000
E 28 45 4.000000
E 28 48 4.000000
E 28 177 2.000000
E 28 181 4.000000
E 28 61 1.000000
E 28 69 2.000000
E 28 198 2.000000
E 28 74 2.000000
E 28 84 1.000000
E 28 87 1.000000
E 28 89 2.000000
E 28 104 2.000000
E 28 123 2.000000
E 29 198 4.000000
E 29 165 2.000000
E 29 102 1.000000
E 29 104 2.000000
E 29 107 1.000000
E 29 111 4.000000
E 29 112 1.000000
E 29 114 2.000000
E 29 31 4.000000
E 29 125 4.000000
E 29 30 2.000000
E 29 63 2.000000
E 29 160 4.000000
E 30 65 4.000000
E 30 129 4.000000
E 30 68 4.000000
E 30 101 1.000000
E 30 70 4.000000
E 30 103 4.000000
E 30 163 2.000000
E 30 75 2.000000
E 30 78 4.000000
E 30 115 4.000000
E 30 122 4.000000
E 31 148 1.000000
E 31 93 1.000000
E 31 140 2.000000
E 31 46 2.000000
E 31 116 1.000000
E 31 86 4.000000
E 31 55 4.000000
E 31 124 2.000000
E 31 102 4.000000
E 32 161 1.000000
E 32 193 4.000000
E 32 35 1.000000
E 32 102 1.000000
E 32 199 2.000000
E 32 50 4.000000
E 32 137 2.000000
E 32 173 4.000000
E 32 99 4.000000
E 32 151 2.000000
E 32 93 4.000000
E 32 126 4.000000
E 32 134 2.000000
E 33 130 4.000000
E 33 133 4.000000
E 33 200 2.000000
E 33 77 1.000000
E 33 153 2.000000
E 33 160 2.000000
E 33 52 4.000000
E 33 55 1.000000
E 33 57 1.000000
E 33 58 1.000000
E 33 96 1.000000
E 33 158 2.000000
E 33 64 1.000000
E 34 35 2.000000
E 34 166 2.000000
E 34 71 1.000000
E 34 169 2.000000
E 34 77 2.000000
E 34 139 1.000000
E 34 45 4.000000
E 34 47 2.000000
E 34 177 4.000000
E 34 82 4.000000
E 34 120 1.000000
E 34 59 4.000000
E 34 189 2.000000
E 34 158 4.000000
E 34 63 1.000000
E 35 199 4.000000
E 35 103 2.000000
E 35 71 1.000000
E 35 72 2.000000
E 35 107 4.000000
E 35 180 1.000000
E 35 57 2.000000
E 35 190 1.000000
E 35 191 1.000000
E 36 193 4.000000
E 36 188 2.000000
E 36 111 2.000000
E 36 49 4.000000
E 36 149 1.000000
E 36 55 4.000000
E 36 88 4.000000
E 36 59 4.000000
E 36 158 4.000000
E 37 196 2.000000
E 37 70 1.000000
E 37 104 4.000000
E 37 131 2.000000
E 37 49 4.000000
E 37 146 4.000000
E 37 180 1.000000
E 37 53 2.000000
E 37 54 2.000000
E 37 117 1.000000
E 37 59 2.000000
E 37 190 2.000000
E 37 127 1.000000
E 38 193 4.000000
E 38 76 4.000000
E 38 178 2.000000
E 38 71 1.000000
E 38 168 2.000000
E 38 106 2.000000
E 38 139 4.000000
E 38 109 1.000000
E 38 46 1.000000
E 38 143 2.000000
E 38 146 1.000000
E 38 197 4.000000
E 38 85 1.000000
E 38 54 2.000000
E 38 135 4.000000
E 38 117 1.000000
E 38 62 1.000000
E 38 63 4.000000
E 39 68 1.000000
E 39 105 4.000000
E 39 43 1.000000
E 39 126 2.000000
E 39 177 1.000000
E 39 190 1.000000
E 39 84 1.000000
E 39 151 4.000000
E 39 125 2.000000
E 39 75 2.000000
E 40 177 2.000000
E 40 176 4.000000
E 40 196 1.000000
E 40 72 1.000000
E 40 171 1.000000
E 40 200 2.000000
E 40 110 4.000000
E 40 78 1.000000
E 40 47 2.000000
E 40 142 4.000000
E 40 178 2.000000
E 40 116 4.000000
E 40 152 2.000000
E 40 123 2.000000
E 40 124 4.000000
E 41 167 4.000000
E 41 72 2.000000
E 41 177 1.000000
E 41 114 1.000000
E 41 149 2.000000
E 41 123 4.000000
E 41 158 2.000000
E 42 162 4.000000
E 42 163 2.000000
E 42 100 1.000000
E 42 137 2.000000
E 42 139 2.000000
E 42 172 1.000000
E 42 141 1.000000
E 42 52 4.000000
E 42 143 2.000000
E 42 89 4.000000
E 42 90 1.000000
E 42 123 4.000000
E 42 124 1.000000
E 42 126 2.000000
E 43 129 2.000000
E 43 200 2.000000
E 43 185 4.000000
E 43 45 1.000000
E 43 50 4.000000
E 43 116 4.000000
E 43 89 2.000000
E 43 156 4.000000
E 44 177 2.000000
E 44 101 4.000000
E 44 198 2.000000
E 44 200 4.000000
E 44 51 4.000000
E 44 143 2.000000
E 44 49 4.000000
E 44 84 4.000000
E 44 85 1.000000
E 44 87 2.000000
E 44 197 1.000000
E 44 127 2.000000
E 44 64 4.000000
E 45 188 1.000000
E 45 101 2.000000
E 45 198 1.000000
E 45 76 2.000000
E 45 110 1.000000
E 45 191 4.000000
E 45 177 4.000000
E 45 82 2.000000
E 45 179 4.000000
E 45 127 4.000000
E 45 185 4.000000
E 45 90 4.000000
E 45 139 2.000000
E 45 95 4.000000
E 45 150 4.000000
E 46 67 2.000000
E 46 101 4.000000
E 46 110 1.000000
E 46 142 4.000000
E 46 121 2.000000
E 46 51 2.000000
E 46 180 2.000000
E 46 190 4.000000
E 47 161 4.000000
E 47 163 4.000000
E 47 140 4.000000
E 47 104 4.000000
E 47 107 1.000000
E 47 141 4.000000
E 47 195 4.000000
E 47 191 2.000000
E 47 116 4.000000
E 47 200 1.000000
E 47 118 4.000000
E 47 119 1.000000
E 47 151 2.000000
E 47 186 2.000000
E 47 95 2.000000
E 48 195 2.000000
E 48 102 1.000000
E 48 72 1.000000
E 48 74 4.000000
E 48 76 1.000000
E 48 77 1.000000
E 48 143 4.000000
E 48 81 4.000000
E 48 54 2.000000
E 48 121 4.000000
E 48 197 2.000000
E 48 60 4.000000
E 48 189 2.000000
E 48 159 4.000000
E 49 163 4.000000
E 49 198 4.000000
E 49 199 4.000000
E 49 168 4.000000
E 49 195 2.000000
E 49 174 1.000000
E 49 144 2.000000
E 49 115 2.000000
E 49 84 1.000000
E 49 132 2.000000
E 49 200 2.000000
E 49 150 2.000000
E 50 131 1.000000
E 50 132 1.000000
E 50 138 2.000000
E 50 149 1.000000
E 50 154 1.000000
E 50 156 4.000000
E 50 165 1.000000
E 50 179 4.000000
E 50 180 4.000000
E 50 54 4.000000
E 50 64 2.000000
E 50 69 1.000000
E 50 72 2.000000
E 50 74 4.000000
E 50 77 2.000000
E 50 85 2.000000
E 50 86 4.000000
E 50 101 2.000000
E 50 113 2.000000
E 51 156 2.000000
E 51 69 2.000000
E 51 87 2.000000
E 51 178 1.000000
E 51 55 1.000000
E 51 60 4.000000
E 51 119 1.000000
E 51 64 2.000000
E 52 65 4.000000
E 52 99 1.000000
E 52 197 1.000000
E 52 162 2.000000
E 52 141 2.000000
E 52 87 2.000000
E 52 121 1.000000
E 52 154 1.000000
E 52 188 2.000000
E 52 159 1.000000
E 53 196 1.000000
E 53 200 4.000000
E 53 139 4.000000
E 53 112 2.000000
E 53 116 4.000000
E 53 118 1.000000
E 53 90 4.000000
E 53 154 4.000000
E 53 124 4.000000
E 54 161 1.000000
E 54 143 4.000000
E 54 158 1.000000
E 54 116 2.000000
E 54 150 2.000000
E 54 55 1.000000
E 54 187 1.000000
E 54 91 4.000000
E 54 119 4.000000
E 54 127 1.000000
E 55 145 4.000000
E 55 67 1.000000
E 55 166 2.000000
E 55 172 4.000000
E 55 161 4.000000
E 55 81 2.000000
E 55 114 4.000000
E 55 68 1.000000
E 55 85 4.000000
E 55 188 4.000000
E 55 168 2.000000
E 55 182 1.000000
E 56 67 4.000000
E 56 69 1.000000
E 56 119 2.000000
E 56 168 2.000000
E 56 179 2.000000
E 56 144 2.000000
E 56 178 1.000000
E 56 147 2.000000
E 56 132 2.000000
E 56 87 4.000000
E 56 58 2.000000
E 56 189 4.000000
E 57 97 2.000000
E 57 68 4.000000
E 57 180 2.000000
E 57 170 2.000000
E 57 89 1.000000
E 57 148 4.000000
E 57 182 4.000000
E 57 185 2.000000
E 57 125 1.000000
E 57 62 1.000000
E 58 150 2.000000
E 58 195 1.000000
E 58 100 4.000000
E 58 198 2.000000
E 58 169 1.000000
E 58 74 4.000000
E 58 111 1.000000
E 58 112 4.000000
E 58 148 1.000000
E 58 187 2.000000
E 58 123 2.000000
E 58 122 2.000000
E 58 91 1.000000
E 58 176 4.000000
E 58 157 2.000000
E 58 94 4.000000
E 58 128 1.000000
E 59 136 1.000000
E 59 156 4.000000
E 59 157 1.000000
E 59 187 1.000000
E 59 190 4.000000
E 59 192 2.000000
E 59 68 1.000000
E 59 69 2.000000
E 59 198 2.000000
E 59 89 4.000000
E 59 165 2.000000
E 59 62 1.000000
E 59 113 2.000000
E 59 116 4.000000
E 59 117 4.000000
E 60 196 1.000000
E 60 103 2.000000
E 60 146 1.000000
E 60 168 4.000000
E 60 79 1.000000
E 60 114 2.000000
E 60 180 4.000000
E 60 118 2.000000
E 60 122 4.000000
E 60 90 2.000000
E 60 62 2.000000
E 60 159 4.000000
E 60 96 1.000000
E 61 194 4.000000
E 61 156 4.000000
E 61 135 1.000000
E 61 105 4.000000
E 61 147 1.000000
E 61 85 1.000000
E 61 150 2.000000
E 61 189 4.000000
E 61 126 2.000000
E 61 191 2.000000
E 62 164 1.000000
E 62 74 2.000000
E 62 75 2.000000
E 62 82 4.000000
E 62 147 4.000000
E 62 117 1.000000
E 62 183 1.000000
E 62 138 1.000000
E 62 186 1.000000
E 62 157 4.000000
E 62 126 2.000000
E 63 164 4.000000
E 63 162 4.000000
E 63 65 2.000000
E 63 157 1.000000
E 63 140 1.000000
E 63 114 2.000000
E 63 169 2.000000
E 63 159 1.000000
E 64 66 4.000000
E 64 140 1.000000
E 64 83 1.000000
E 64 134 2.000000
E 64 200 2.000000
E 64 188 4.000000
E 64 77 2.000000
E 64 78 4.000000
E 64 111 2.000000
E 64 112 1.000000
E 64 175 4.000000
E 64 124 2.000000
E 64 96 4.000000
E 65 164 1.000000
E 65 166 4.000000
E 65 168 2.000000
E 65 110 1.000000
E 65 146 1.000000
E 65 88 2.000000
E 65 91 2.000000
E 66 129 1.000000
E 66 132 4.000000
E 66 180 2.000000
E 66 162 4.000000
E 66 185 2.000000
E 66 148 4.000000
E 66 150 1.000000
E 66 153 1.000000
E 66 187 1.000000
E 66 160 2.000000
E 67 69 1.000000
E 67 183 4.000000
E 67 137 1.000000
E 67 139 4.000000
E 67 172 1.000000
E 67 78 4.000000
E 67 179 2.000000
E 67 148 2.000000
E 67 121 2.000000
E 67 123 2.000000
E 67 126 1.000000
E 68 177 1.000000
E 68 153 2.000000
E 68 183 2.000000
E 68 75 1.000000
E 68 94 1.000000
E 68 81 1.000000
E 68 115 4.000000
E 68 191 4.000000
E 68 186 4.000000
E 68 93 4.000000
E 68 95 1.000000
E 69 76 1.000000
E 69 198 4.000000
E 69 105 2.000000
E 69 94 1.000000
E 69 183 1.000000
E 69 96 4.000000
E 70 132 1.000000
E 70 102 2.000000
E 70 113 1.000000
E 70 83 2.000000
E 70 116 4.000000
E 70 122 4.000000
E 70 101 4.000000
E 70 191 1.000000
E 70 198 4.000000
E 71 97 4.000000
E 71 133 1.000000
E 71 130 2.000000
E 71 141 4.000000
E 71 107 1.000000
E 71 172 1.000000
E 71 77 2.000000
E 71 144 2.000000
E 71 194 2.000000
E 71 181 4.000000
E 71 187 2.000000
E 71 125 2.000000
E 72 77 2.000000
E 72 175 4.000000
E 72 151 2.000000
E 72 185 4.000000
E 72 93 4.000000
E 73 99 4.000000
E 73 164 4.000000
E 73 133 4.000000
E 73 106 1.000000
E 73 171 4.000000
E 73 143 2.000000
E 73 113 2.000000
E 73 88 2.000000
E 73 89 2.000000
E 73 186 4.000000
E 74 132 2.000000
E 74 142 4.000000
E 74 145 2.000000
E 74 151 1.000000
E 74 156 2.000000
E 74 159 4.000000
E 74 180 1.000000
E 74 184 2.000000
E 74 187 2.000000
E 74 190 1.000000
E 74 192 1.000000
E 74 85 2.000000
E 74 91 4.000000
E 74 97 1.000000
E 74 100 4.000000
E 74 128 2.000000
E 75 99 1.000000
E 75 162 1.000000
E 75 179 4.000000
E 75 115 4.000000
E 75 112 4.000000
E 75 123 1.000000
E 75 104 2.000000
E 75 152 1.000000
E 76 129 1.000000
E 76 182 1.000000
E 76 170 4.000000
E 76 149 4.000000
E 76 150 1.000000
E 76 154 4.000000
E 76 90 2.000000
E 76 155 4.000000
E 76 166 1.000000
E 77 130 4.000000
E 77 145 2.000000
E 77 149 1.000000
E 77 199 4.000000
E 77 170 4.000000
E 77 183 2.000000
E 77 189 1.000000
E 77 193 1.000000
E 77 79 2.000000
E 77 104 1.000000
E 77 111 1.000000
E 77 119 2.000000
E 77 125 1.000000
E 78 161 2.000000
E 78 134 1.000000
E 78 103 1.000000
E 78 139 2.000000
E 78 112 2.000000
E 78 173 2.000000
E 78 94 1.000000
E 78 177 4.000000
E 78 183 4.000000
E 78 128 2.000000
E 78 80 4.000000
E 79 116 4.000000
E 79 103 1.000000
E 79 104 4.000000
E 79 152 2.000000
E 79 110 2.000000
E 79 175 2.000000
E 79 112 4.000000
E 79 179 2.000000
E 79 88 4.000000
E 79 187 1.000000
E 79 200 1.000000
E 79 196 2.000000
E 80 167 4.000000
E 80 103 1.000000
E 80 104 4.000000
E 80 173 1.000000
E 80 111 1.000000
E 80 177 4.000000
E 80 115 1.000000
E 80 185 2.000000
E 80 180 2.000000
E 81 193 4.000000
E 81 98 4.000000
E 81 99 1.000000
E 81 151 1.000000
E 81 136 1.000000
E 81 105 4.000000
E 81 138 4.000000
E 81 141 2.000000
E 81 82 1.000000
E 81 150 2.000000
E 82 100 2.000000
E 82 101 1.000000
E 82 166 2.000000
E 82 197 4.000000
E 82 200 4.000000
E 82 196 4.000000
E 82 149 1.000000
E 82 86 2.000000
E 82 119 4.000000
E 82 154 1.000000
E 82 187 1.000000
E 83 161 1.000000
E 83 130 2.000000
E 83 164 2.000000
E 83 194 4.000000
E 83 137 4.000000
E 83 192 2.000000
E 83 144 4.000000
E 83 114 1.000000
E 83 182 1.000000
E 83 119 2.000000
E 83 184 2.000000
E 83 153 2.000000
E 83 154 4.000000
E 83 176 1.000000
E 84 113 4.000000
E 84 131 4.000000
E 84 130 1.000000
E 84 105 2.000000
E 84 139 1.000000
E 84 145 4.000000
E 84 118 2.000000
E 84 87 1.000000
E 84 177 4.000000
E 85 130 2.000000
E 85 163 1.000000
E 85 168 2.000000
E 85 109 1.000000
E 85 183 1.000000
E 85 158 2.000000
E 85 153 2.000000
E 85 126 1.000000
E 85 134 4.000000
E 86 162 4.000000
E 86 170 2.000000
E 86 113 2.000000
E 86 119 2.000000
E 86 185 4.000000
E 86 91 4.000000
E 87 98 4.000000
E 87 101 2.000000
E 87 104 2.000000
E 87 170 1.000000
E 87 178 4.000000
E 87 143 2.000000
E 87 114 4.000000
E 87 158 2.000000
E 87 159 2.000000
E 88 162 1.000000
E 88 131 2.000000
E 88 134 4.000000
E 88 104 1.000000
E 88 138 1.000000
E 88 163 2.000000
E 88 154 1.000000
E 89 196 4.000000
E 89 198 1.000000
E 89 135 4.000000
E 89 110 4.000000
E 89 142 1.000000
E 89 141 2.000000
E 89 148 2.000000
E 90 97 4.000000
E 90 183 4.000000
E 90 128 2.000000
E 91 194 4.000000
E 91 131 4.000000
E 91 200 1.000000
E 91 169 1.000000
E 91 107 2.000000
E 91 176 4.000000
E 91 181 4.000000
E 91 160 4.000000
E 91 118 1.000000
E 92 130 1.000000
E 92 135 1.000000
E 92 108 2.000000
E 92 146 4.000000
E 92 119 1.000000
E 92 189 2.000000
E 93 145 2.000000
E 93 197 2.000000
E 93 191 1.000000
E 93 110 2.000000
E 93 142 1.000000
E 93 180 1.000000
E 93 182 2.000000
E 93 153 1.000000
E 93 157 2.000000
E 94 169 2.000000
E 94 139 2.000000
E 94 165 1.000000
E 94 118 4.000000
E 94 119 2.000000
E 95 129 4.000000
E 95 161 1.000000
E 95 169 2.000000
E 95 106 1.000000
E 95 110 4.000000
E 95 175 1.000000
E 95 150 4.000000
E 95 154 4.000000
E 95 159 2.000000
E 96 193 1.000000
E 96 100 4.000000
E 96 167 4.000000
E 96 136 4.000000
E 96 137 4.000000
E 96 108 4.000000
E 96 113 2.000000
E 96 118 2.000000
E 96 153 4.000000
E 96 122 1.000000
E 97 109 1.000000
E 97 176 1.000000
E 97 179 1.000000
E 97 126 4.000000
E 98 195 1.000000
E 98 101 1.000000
E 98 111 1.000000
E 98 178 2.000000
E 98 150 4.000000
E 98 160 2.000000
E 99 162 4.000000
E 99 167 4.000000
E 99 166 4.000000
E 99 103 2.000000
E 99 172 2.000000
E 99 144 2.000000
E 99 110 4.000000
E 99 112 4.000000
E 99 118 1.000000
E 99 124 2.000000
E 99 157 4.000000
E 99 126 2.000000
E 100 149 4.000000
E 100 164 4.000000
E 100 134 4.000000
E 100 196 4.000000
E 100 143 2.000000
E 100 116 2.000000
E 100 122 4.000000
E 100 111 2.000000
E 100 126 2.000000
E 101 143 1.000000
E 101 115 2.000000
E 101 140 2.000000
E 101 138 1.000000
E 101 125 2.000000
E 102 195 1.000000
E 102 140 4.000000
E 102 104 1.000000
E 102 176 4.000000
E 102 175 1.000000
E 102 183 4.000000
E 102 128 4.000000
E 102 168 2.000000
E 103 182 1.000000
E 103 124 1.000000
E 103 136 2.000000
E 103 137 2.000000
E 103 110 1.000000
E 103 158 4.000000
E 103 181 2.000000
E 103 121 1.000000
E 103 160 2.000000
E 104 151 1.000000
E 104 137 4.000000
E 104 146 2.000000
E 104 147 1.000000
E 104 158 2.000000
E 104 170 2.000000
E 104 177 1.000000
E 104 182 2.000000
E 104 186 1.000000
E 104 194 1.000000
E 104 195 1.000000
E 104 196 4.000000
E 105 200 1.000000
E 105 110 2.000000
E 105 147 4.000000
E 105 150 4.000000
E 105 155 2.000000
E 105 123 4.000000
E 105 126 2.000000
E 105 192 2.000000
E 106 197 1.000000
E 106 138 4.000000
E 106 173 4.000000
E 106 111 1.000000
E 106 178 2.000000
E 106 115 1.000000
E 106 148 4.000000
E 106 127 1.000000
E 106 180 1.000000
E 107 138 2.000000
E 107 108 1.000000
E 107 184 2.000000
E 107 154 1.000000
E 108 193 4.000000
E 108 197 1.000000
E 108 109 1.000000
E 108 176 2.000000
E 108 121 4.000000
E 108 181 4.000000
E 108 182 4.000000
E 109 163 1.000000
E 109 130 2.000000
E 109 174 2.000000
E 109 113 1.000000
E 109 147 2.000000
E 109 148 4.000000
E 109 150 1.000000
E 109 117 2.000000
E 109 180 1.000000
E 109 156 1.000000
E 109 166 4.000000
E 110 195 4.000000
E 110 151 1.000000
E 110 138 1.000000
E 110 140 2.000000
E 110 137 2.000000
E 110 173 2.000000
E 110 119 2.000000
E 110 197 2.000000
E 111 124 1.000000
E 111 133 4.000000
E 111 166 4.000000
E 111 161 4.000000
E 111 114 4.000000
E 111 151 4.000000
E 111 120 4.000000
E 111 154 2.000000
E 111 126 1.000000
E 112 132 1.000000
E 112 169 2.000000
E 112 171 2.000000
E 112 160 4.000000
E 112 123 1.000000
E 113 189 2.000000
E 113 169 1.000000
E 113 141 1.000000
E 113 143 2.000000
E 113 124 4.000000
E 113 118 4.000000
E 113 159 4.000000
E 114 129 2.000000
E 114 193 2.000000
E 114 131 4.000000
E 114 135 4.000000
E 114 194 1.000000
E 114 157 4.000000
E 114 181 4.000000
E 114 119 4.000000
E 115 137 2.000000
E 115 153 2.000000
E 115 197 1.000000
E 115 119 1.000000
E 115 121 1.000000
E 115 155 1.000000
E 116 130 1.000000
E 116 133 4.000000
E 116 181 2.000000
E 116 198 1.000000
E 117 129 4.000000
E 117 162 1.000000
E 117 141 2.000000
E 117 178 2.000000
E 117 168 1.000000
E 117 119 4.000000
E 117 120 2.000000
E 117 121 2.000000
E 117 122 4.000000
E 118 177 2.000000
E 118 180 4.000000
E 118 192 4.000000
E 118 153 2.000000
E 118 191 1.000000
E 119 130 4.000000
E 119 139 2.000000
E 119 145 2.000000
E 119 166 2.000000
E 119 170 1.000000
E 119 172 2.000000
E 119 183 1.000000
E 119 185 2.000000
E 120 161 1.000000
E 120 164 1.000000
E 120 197 4.000000
E 120 137 1.000000
E 120 176 1.000000
E 120 148 1.000000
E 120 181 4.000000
E 120 158 4.000000
E 120 159 4.000000
E 121 181 2.000000
E 121 165 2.000000
E 121 163 2.000000
E 121 141 4.000000
E 121 175 4.000000
E 121 160 4.000000
E 122 130 1.000000
E 122 145 2.000000
E 122 174 4.000000
E 122 143 1.000000
E 122 126 2.000000
E 122 187 1.000000
E 123 140 4.000000
E 123 181 2.000000
E 123 159 1.000000
E 123 138 4.000000
E 123 154 4.000000
E 123 157 2.000000
E 123 127 4.000000
E 124 172 2.000000
E 124 143 2.000000
E 124 134 2.000000
E 124 168 4.000000
E 124 141 4.000000
E 124 184 2.000000
E 124 197 2.000000
E 124 192 2.000000
E 125 132 4.000000
E 125 175 4.000000
E 125 164 2.000000
E 125 154 2.000000
E 126 135 4.000000
E 126 146 2.000000
E 126 147 1.000000
E 126 156 1.000000
E 126 173 4.000000
E 126 175 4.000000
E 126 177 1.000000
E 126 178 4.000000
E 126 192 1.000000
E 127 163 1.000000
E 127 198 2.000000
E 127 197 4.000000
E 127 143 2.000000
E 127 183 2.000000
E 128 194 2.000000
E 128 188 1.000000
E 128 199 2.000000
E 128 184 1.000000
E 128 146 1.000000
E 128 154 1.000000
E 128 185 4.000000
E 129 170 1.000000
E 129 148 4.000000
E 129 175 2.000000
E 129 139 2.000000
E 129 171 4.000000
E 130 132 1.000000
E 130 137 2.000000
E 130 172 2.000000
E 130 143 4.000000
E 130 175 4.000000
E 130 153 2.000000
E 130 170 1.000000
E 131 135 1.000000
E 131 170 2.000000
E 131 139 4.000000
E 131 163 1.000000
E 131 144 4.000000
E 131 182 2.000000
E 132 141 1.000000
E 132 152 1.000000
E 132 149 2.000000
E 132 150 1.000000
E 132 144 4.000000
E 133 173 1.000000
E 133 189 4.000000
E 133 196 2.000000
E 134 164 4.000000
E 134 168 2.000000
E 134 152 2.000000
E 134 145 4.000000
E 135 138 2.000000
E 135 172 2.000000
E 135 174 2.000000
E 135 170 4.000000
E 136 200 1.000000
E 136 141 1.000000
E 136 147 4.000000
E 136 148 2.000000
E 137 197 2.000000
E 137 167 2.000000
E 138 196 4.000000
E 138 158 1.000000
E 138 175 1.000000
E 138 144 4.000000
E 139 175 1.000000
E 139 157 4.000000
E 140 145 1.000000
E 140 151 1.000000
E 140 153 1.000000
E 140 158 4.000000
E 140 165 2.000000
E 140 177 4.000000
E 140 193 4.000000
E 140 196 4.000000
E 140 198 2.000000
E 140 142 2.000000
E 141 144 2.000000
E 141 166 2.000000
E 141 178 1.000000
E 141 182 1.000000
E 141 194 2.000000
E 141 196 1.000000
E 141 197 2.000000
E 141 150 1.000000
E 142 193 4.000000
E 142 163 1.000000
E 143 199 4.000000
E 143 187 4.000000
E 143 183 4.000000
E 144 198 4.000000
E 145 172 2.000000
E 145 184 1.000000
E 145 198 1.000000
E 145 160 2.000000
E 145 151 4.000000
E 146 195 2.000000
E 146 184 2.000000
E 146 189 4.000000
E 147 194 4.000000
E 147 195 2.000000
E 147 149 4.000000
E 147 182 2.000000
E 148 176 4.000000
E 148 150 1.000000
E 148 153 4.000000
E 149 199 1.000000
E 149 178 4.000000
E 150 155 4.000000
E 150 156 4.000000
E 150 162 4.000000
E 150 171 1.000000
E 150 176 1.000000
E 150 180 2.000000
E 150 191 1.000000
E 150 198 4.000000
E 150 200 1.000000
E 151 167 2.000000
E 151 186 1.000000
E 151 159 2.000000
E 152 199 4.000000
E 152 176 1.000000
E 152 154 2.000000
E 152 156 1.000000
E 152 198 2.000000
E 153 180 2.000000
E 153 188 1.000000
E 153 183 4.000000
E 153 181 1.000000
E 153 159 1.000000
E 154 180 4.000000
E 155 197 1.000000
E 155 166 2.000000
E 155 184 4.000000
E 155 157 1.000000
E 156 164 4.000000
E 156 191 1.000000
E 156 170 2.000000
E 157 168 2.000000
E 157 169 4.000000
E 157 178 4.000000
E 157 179 2.000000
E 157 186 1.000000
E 158 183 4.000000
E 158 175 4.000000
E 158 189 4.000000
E 158 159 4.000000
E 158 198 4.000000
E 159 192 1.000000
E 159 175 4.000000
E 159 183 2.000000
E 159 182 2.000000
E 160 177 2.000000
E 160 191 4.000000
E 160 198 4.000000
E 161 174 1.000000
E 161 180 4.000000
E 162 193 2.000000
E 162 176 1.000000
E 162 187 2.000000
E 162 192 2.000000
E 163 193 2.000000
E 164 195 2.000000
E 164 165 4.000000
E 164 171 1.000000
E 165 193 2.000000
E 165 171 2.000000
E 165 174 1.000000
E 165 179 2.000000
E 165 180 2.000000
E 165 187 4.000000
E 165 183 2.000000
E 166 193 1.000000
E 166 187 1.000000
E 166 191 4.000000
E 167 198 4.000000
E 167 200 1.000000
E 167 188 2.000000
E 168 194 4.000000
E 168 188 2.000000
E 168 172 4.000000
E 168 182 4.000000
E 169 195 2.000000
E 169 200 4.000000
E 169 191 1.000000
E 171 172 1.000000
E 171 193 1.000000
E 172 177 1.000000
E 172 182 2.000000
E 172 184 4.000000
E 172 189 4.000000
E 173 188 2.000000
E 174 194 4.000000
E 174 178 4.000000
E 174 189 2.000000
E 175 182 1.000000
E 175 190 2.000000
E 175 183 4.000000
E 176 190 1.000000
E 176 191 1.000000
E 177 189 1.000000
E 178 183 2.000000
E 179 182 1.000000
E 180 198 1.000000
E 180 194 1.000000
E 180 181 4.000000
E 181 183 1.000000
E 182 186 2.000000
E 183 200 1.000000
E 184 186 1.000000
E 187 193 1.000000
E 188 193 2.000000
E 188 189 4.000000
E 190 193 1.000000
E 191 193 2.000000
E 192 194 2.000000
E 192 200 2.000000
E 197 198 2.000000
END

SECTION Terminals
Terminals 200
TP 1 1.000116
TP 2 0.464770
TP 3 0.592893
TP 4 0.980210
TP 5 1.145934
TP 6 0.433876
TP 7 0.039518
TP 8 1.473920
TP 9 0.891953
TP 10 0.782050
TP 11 0.562861
TP 12 1.134808
TP 13 0.575225
TP 14 1.464833
TP 15 0.541728
TP 16 1.412210
TP 17 0.052447
TP 18 0.574159
TP 19 0.676830
TP 20 0.749597
TP 21 0.240870
TP 22 1.081706
TP 23 0.226379
TP 24 0.213452
TP 25 1.351562
TP 26 0.657123
TP 27 1.312852
TP 28 0.534816
TP 29 1.340197
TP 30 0.128518
TP 31 1.377961
TP 32 1.453727
TP 33 0.986079
TP 34 0.297044
TP 35 1.443342
TP 36 0.403886
TP 37 0.860377
TP 38 0.706328
TP 39 1.433147
TP 40 0.945611
TP 41 1.211063
TP 42 0.615403
TP 43 0.396963
TP 44 0.501652
TP 45 0.864422
TP 46 1.145521
TP 47 1.129445
TP 48 1.307894
TP 49 0.863598
TP 50 0.830227
TP 51 0.640101
TP 52 0.441900
TP 53 1.119170
TP 54 0.119651
TP 55 0.969926
TP 56 0.258733
TP 57 0.074790
TP 58 0.763709
TP 59 1.097100
TP 60 0.763911
TP 61 1.354763
TP 62 1.238993
TP 63 1.074076
TP 64 1.075878
TP 65 1.241002
TP 66 0.537447
TP 67 1.178979
TP 68 0.040317
TP 69 1.492767
TP 70 0.261215
TP 71 0.608673
TP 72 0.545961
TP 73 0.441275
TP 74 0.136490
TP 75 1.408657
TP 76 1.409045
TP 77 1.391039
TP 78 0.916732
TP 79 0.253168
TP 80 0.950483
TP 81 1.353841
TP 82 0.497977
TP 83 0.123997
TP 84 1.038097
TP 85 1.176071
TP 86 0.632482
TP 87 0.853947
TP 88 1.038340
TP 89 0.784738
TP 90 1.325794
TP 91 0.391765
TP 92 0.279033
TP 93 1.090687
TP 94 1.340580
TP 95 1.440506
TP 96 0.208231
TP 97 0.558318
TP 98 0.345561
TP 99 0.821765
TP 100 0.416095
TP 101 1.046593
TP 102 0.715153
TP 103 1.135337
TP 104 0.953076
TP 105 1.395977
TP 106 0.515812
TP 107 1.078734
TP 108 0.856685
TP 109 0.737235
TP 110 0.412196
TP 111 0.576812
TP 112 1.212276
TP 113 1.012793
TP 114 1.000649
TP 115 0.985129
TP 116 0.602311
TP 117 1.179450
TP 118 1.104660
TP 119 1.306429
TP 120 1.174844
TP 121 0.876557
TP 122 1.119364
TP 123 0.113813
TP 124 1.424859
TP 125 0.575346
TP 126 0.253276
TP 127 0.076514
TP 128 1.010566
TP 129 0.305209
TP 130 1.108991
TP 131 0.492003
TP 132 0.596659
TP 133 0.542961
TP 134 1.152917
TP 135 1.497636
TP 136 1.373220
TP 137 0.111564
TP 138 0.178127
TP 139 0.871913
TP 140 1.241200
TP 141 1.233677
TP 142 0.981553
TP 143 1.278709
TP 144 0.891321
TP 145 0.761040
TP 146 0.029682
TP 147 1.238581
TP 148 0.278201
TP 149 0.502311
TP 150 0.869802
TP 151 0.437753
TP 152 1.426256
TP 153 1.481722
TP 154 0.158080
TP 155 1.233681
TP 156 0.542882
TP 157 0.536528
TP 158 0.547595
TP 159 1.323458
TP 160 0.393157
TP 161 1.351688
TP 162 1.068358
TP 163 0.324079
TP 164 0.021449
TP 165 0.970780
TP 166 0.885115
TP 167 0.259295
TP 168 0.156820
TP 169 1.430703
TP 170 0.672033
TP 171 1.153778
TP 172 0.029367
TP 173 0.403921
TP 174 0.647812
TP 175 0.538531
TP 176 0.922689
TP 177 1.410750
TP 178 0.774851
TP 179 1.385259
TP 180 0.822714
TP 181 1.176667
TP 182 0.318891
TP 183 0.624036
TP 184 0.832070
TP 185 0.110313
TP 186 1.181675
TP 187 0.308018
TP 188 1.443595
TP 189 0.228229
TP 190 0.840284
TP 191 1.410259
TP 192 0.871935
TP 193 0.698591
TP 194 1.218879
TP 195 0.702025
TP 196 0.824300
TP 197 1.226778
TP 198 0.210229
TP 199 0.333695
TP 200 0.028600
END

EOF
